unsat
(:SPACER-inductive-gen                28
 :SPACER-inductive-gen-weaken-fail    28
 :SPACER-inductive-level              27
 :SPACER-max-depth                    53
 :SPACER-max-query-lvl                53
 :SPACER-non-local-gen                650
 :SPACER-num-active-lemmas            31
 :SPACER-num-ctp-blocked              51
 :SPACER-num-invariants               27
 :SPACER-num-is_invariant             704
 :SPACER-num-lemmas                   732
 :SPACER-num-pobs                     27
 :SPACER-num-queries                  678
 :added-eqs                           1173860
 :arith-assert-diseq                  6614
 :arith-assert-lower                  403914
 :arith-assert-upper                  571850
 :arith-bound-prop                    58894
 :arith-conflicts                     804
 :arith-eq-adapter                    200372
 :arith-fixed-eqs                     173918
 :arith-num-rows                      626
 :arith-offset-eqs                    95842
 :arith-pivots                        233868
 :arith-row-summations                2213606
 :arith-tableau-max-columns           1092
 :arith-tableau-max-rows              626
 :conflicts                           5776
 :decisions                           141896
 :del-clause                          808076
 :final-checks                        2662
 :iuc_solver.num_proxies              80
 :max-memory                          40.03
 :memory                              38.64
 :minimized-lits                      1246
 :mk-bool-var                         946288
 :mk-clause                           808194
 :num-allocs                          47101967726.00
 :num-checks                          6844
 :pool_solver.checks                  3422
 :pool_solver.checks.sat              55
 :pool_solver.checks.undef            1276
 :propagations                        976700
 :rlimit-count                        37470504
 :time                                13.46
 :time.iuc_solver.get_iuc             1.68
 :time.iuc_solver.get_iuc.hyp_reduce1 0.18
 :time.iuc_solver.get_iuc.hyp_reduce2 0.41
 :time.iuc_solver.get_iuc.learn_core  0.90
 :time.pool_solver.proof              0.20
 :time.pool_solver.smt.total          8.70
 :time.pool_solver.smt.total.sat      0.02
 :time.pool_solver.smt.total.undef    4.37
 :time.spacer.init_rules              0.00
 :time.spacer.mbp                     0.21
 :time.spacer.solve                   13.44
 :time.spacer.solve.propagate         2.81
 :time.spacer.solve.reach             10.64
 :time.spacer.solve.reach.children    0.46
 :time.spacer.solve.reach.cluster     1.21
 :time.spacer.solve.reach.gen.global  0.24
 :time.spacer.solve.reach.gen.ind     0.00)
(:max-memory   40.03
 :memory       38.64
 :num-allocs   47101967726.00
 :rlimit-count 37470504
 :time         13.46
 :total-time   13.47)
